% demand
num_movements = 21;
loading_factor = [1250, 1350, 1450, 1500, 1000, 1450, 1100, 1950, 900, 2000, 1800, 1850, 1350, 1800, 1850, 1000, 1600, 1600, 1450, 1050, 1500];
pickup_time = [0, 0, 0, 0, 0, 1, 1, 4, 4, 6, 6, 6, 6, 9, 9, 9, 10, 10, 10, 11, 11];
delivery_time = [5, 1, 6, 4, 1, 5, 4, 5, 5, 9, 8, 7, 11, 10, 10, 12, 12, 11, 12, 12, 12];

% transporter definition
total_capacity = 7000;
num_decks = 3;
capacity = [3000, 1000, 3000];

% ways out of decks
num_ways_out = 1;
paths_out = array3d(decks, ways_out, decks, [
% ways out of deck d1
2, 3, 0, 

% ways out of deck d2
3, 0, 0, 

% ways out of deck d3
0, 0, 0,	

]);

